(declare-const tmp Int)
(declare-const |z':56| Int)
(declare-const |w':59| Int)
(declare-const |K:66| Int)
(declare-const |x':57| Int)
(declare-const |y':58| Int)
(declare-const |tmp':60| Int)
(declare-const |havoc:12:54| Int)
(assert (and (= (+ |y':58| (- |K:66|)) 0) (= (+ |w':59| (* -2 |K:66|)) 0)
               (<= (+ |x':57| (- |K:66|)) 0) (<= (+ (- |z':56|) 1) 0)
               (<= (- |x':57|) 0)
               (or (and (= |K:66| 0) (= (+ (- |tmp':60|) tmp) 0)
                          (= (- |w':59|) 0) (= (- |y':58|) 0)
                          (= (- |x':57|) 0) (= (+ (- |z':56|) 1) 0))
                     (and (<= (+ (- |K:66|) 1) 0)
                            (= (+ |w':59| (* -2 |y':58|)) 0)
                            (<= (+ (- |y':58|) 1) 0) (<= (- |x':57|) 0)
                            (<= (+ (- |z':56|) |x':57| (* 3 |y':58|) -3) 0)
                            (<= (+ (- |z':56|) (* 3 |y':58|) -2) 0)))
               (<= (- |K:66|) 0) (< (- |z':56|) 0) (<= (- |x':57|) 0)
               (<= (- |y':58|) 0) (<= (- |w':59|) 0)
               (= (+ (- |w':59|) (* 2 |y':58|)) 0) (= |havoc:12:54| 0)
               (not (= (+ |x':57| (- |y':58|)) 0))))
(check-sat)
